NumGames = 11;
NumReferees = 32;
NumFields = 4;
game_id = [3336, 3337, 3338, 3339, 3340, 3344, 3345, 3346, 3347, 3348, 3349];
game_start = [610, 680, 890, 1110, 1240, 600, 780, 900, 1110, 720, 600];
game_end = [730, 800, 1010, 1230, 1360, 720, 900, 1020, 1230, 840, 720];
difficulty = [1, 1, 1, 1, 1, 2, 2, 3, 3, 1, 1];
game_field = [1, 1, 1, 1, 1, 2, 2, 3, 3, 4, 4];
referee_id = [1206, 3111, 3112, 3116, 3256, 3257, 3260, 3262, 3263, 3267, 3276, 3475, 3524, 3526, 3533, 3539, 3540, 3544, 3699, 7485, 7486, 7490, 7494, 7498, 7503, 7506, 7508, 7530, 7533, 7538, 7541, 7543];
main_exp = [277, 23, 1, 11, 45, 8, 147, 105, 135, 36, 7, 25, 12, 57, 31, 12, 20, 0, 0, 0, 14, 2, 1, 2, 18, 1, 1, 7, 6, 5, 0, 0];
assist_exp = [151, 62, 1, 15, 51, 18, 99, 79, 101, 133, 13, 27, 61, 106, 43, 97, 0, 1, 1, 29, 66, 12, 12, 24, 59, 42, 0, 0, 24, 3, 0, 0];
available_slots = array3d(1..NumReferees, 1..3, 1..2,[
  720,1350, 0,0, 0,0,
  0,1440, 0,0, 0,0,
  0,1440, 0,0, 0,0,
  0,1440, 0,0, 0,0,
  600,900, 0,0, 0,0,
  600,810, 1080,1380, 0,0,
  660,900, 0,0, 0,0,
  0,1440, 0,0, 0,0,
  0,1440, 0,0, 0,0,
  0,1440, 0,0, 0,0,
  600,960, 0,0, 0,0,
  890,1230, 0,0, 0,0,
  600,900, 1230,1380, 0,0,
  0,1440, 0,0, 0,0,
  600,1080, 0,0, 0,0,
  0,720, 0,0, 0,0,
  0,1440, 0,0, 0,0,
  600,720, 0,0, 0,0,
  600,840, 0,0, 0,0,
  540,960, 0,0, 0,0,
  780,1020, 0,0, 0,0,
  0,1410, 0,0, 0,0,
  540,960, 0,0, 0,0,
  0,1410, 0,0, 0,0,
  0,1440, 0,0, 0,0,
  540,960, 0,0, 0,0,
  754,1041, 0,0, 0,0,
  0,1440, 0,0, 0,0,
  0,1440, 0,0, 0,0,
  1110,1410, 0,0, 0,0,
  720,2160, 0,0, 0,0,
  0,1440, 0,0, 0,0,
]);